sat
(
  (define-fun ProcProv1 () Int
    2)
  (define-fun C5_VM2 () Int
    1)
  (define-fun C2_VM4 () Int
    0)
  (define-fun C1_VM3 () Int
    0)
  (define-fun VM4Type () Int
    15)
  (define-fun C2_VM3 () Int
    1)
  (define-fun MemProv3 () Int
    3750)
  (define-fun PriceProv2 () Int
    379)
  (define-fun MemProv1 () Int
    3750)
  (define-fun C2_VM5 () Int
    0)
  (define-fun C5_VM4 () Int
    0)
  (define-fun C5_VM5 () Int
    0)
  (define-fun PriceProv3 () Int
    128)
  (define-fun C2_VM1 () Int
    0)
  (define-fun MemProv2 () Int
    30500)
  (define-fun C3_VM5 () Int
    0)
  (define-fun VM3Type () Int
    17)
  (define-fun ProcProv3 () Int
    2)
  (define-fun C4_VM4 () Int
    0)
  (define-fun C3_VM1 () Int
    0)
  (define-fun ProcProv2 () Int
    4)
  (define-fun StorageProv5 () Int
    2000)
  (define-fun StorageProv3 () Int
    2000)
  (define-fun MemProv5 () Int
    15000)
  (define-fun C3_VM2 () Int
    0)
  (define-fun C1_VM5 () Int
    1)
  (define-fun C4_VM2 () Int
    0)
  (define-fun C3_VM4 () Int
    1)
  (define-fun C1_VM4 () Int
    0)
  (define-fun StorageProv4 () Int
    1000)
  (define-fun StorageProv2 () Int
    1000)
  (define-fun PriceProv1 () Int
    128)
  (define-fun VM1Type () Int
    17)
  (define-fun C5_VM3 () Int
    0)
  (define-fun C4_VM5 () Int
    0)
  (define-fun C2_VM2 () Int
    0)
  (define-fun C4_VM3 () Int
    0)
  (define-fun C1_VM2 () Int
    0)
  (define-fun ProcProv4 () Int
    4)
  (define-fun PriceProv5 () Int
    402)
  (define-fun VM2Type () Int
    15)
  (define-fun MemProv4 () Int
    30500)
  (define-fun ProcProv5 () Int
    4)
  (define-fun C4_VM1 () Int
    1)
  (define-fun C3_VM3 () Int
    0)
  (define-fun PriceProv4 () Int
    379)
  (define-fun VM5Type () Int
    13)
  (define-fun StorageProv1 () Int
    2000)
  (define-fun C5_VM1 () Int
    0)
  (define-fun C1_VM1 () Int
    0)
)
(objectives
 ( 20)
 ((+ 0 PriceProv1 PriceProv2 PriceProv3 PriceProv4 PriceProv5) 1416)
)
(:added-eqs                   71925
 :arith-eq-adapter            24126
 :arith-bound-propagations-lp 3402
 :arith-conflicts             189
 :arith-diseq                 68111
 :arith-fixed-eqs             867
 :arith-lower                 73086
 :arith-make-feasible         16416
 :arith-max-columns           112
 :arith-max-rows              17
 :arith-upper                 86013
 :binary-propagations         304282
 :conflicts                   2159
 :decisions                   25261
 :del-clause                  31558
 :final-checks                68
 :max-memory                  40.44
 :maxsat-cores                12
 :memory                      40.44
 :minimized-lits              7351
 :mk-bool-var                 44179
 :mk-clause                   32297
 :mk-clause-binary            2163
 :num-allocs                  11651744
 :num-checks                  115
 :pb-conflicts                640
 :pb-predicates               184
 :pb-propagations             1572
 :pb-resolves                 639
 :propagations                461865
 :restarts                    3
 :rlimit-count                3028500
 :solve-eqs-elim-vars         2
 :solve-eqs-steps             16
 :time                        0.18
 :total-time                  0.18)
